n_res = 4;
rc = [ 36, 53, 44, 33 ];
n_tasks = 60;
d = [ 1, 9, 3, 4, 3, 10, 5, 5, 4, 5, 3, 7, 8, 7, 5, 9, 5, 5, 7, 9, 9, 4, 8, 9, 1, 3, 2, 6, 5, 10, 1, 4, 2, 6, 9, 8, 1, 1, 7, 10, 4, 10, 1, 5, 3, 8, 10, 8, 3, 3, 2, 10, 1, 7, 9, 4, 1, 8, 9, 5 ];
rr = [| 4, 9, 8, 7, 3, 1, 5, 9, 9, 1, 0, 7, 6, 0, 3, 9, 8, 8, 5, 0, 6, 0, 9, 1, 0, 3, 9, 0, 6, 0, 1, 7, 10, 0, 3, 0, 9, 5, 5, 10, 0, 2, 9, 10, 0, 2, 8, 2, 0, 0, 4, 0, 5, 10, 7, 5, 1, 10, 8, 7
      | 0, 9, 2, 2, 8, 0, 10, 1, 9, 2, 7, 10, 6, 2, 3, 2, 0, 5, 7, 4, 2, 9, 10, 1, 1, 10, 10, 7, 7, 7, 10, 0, 0, 0, 0, 0, 7, 9, 0, 4, 8, 0, 4, 4, 6, 3, 1, 2, 0, 9, 7, 0, 0, 1, 1, 2, 0, 1, 8, 5
      | 0, 8, 5, 7, 0, 8, 0, 0, 7, 0, 4, 10, 3, 9, 0, 2, 8, 0, 7, 1, 0, 0, 9, 2, 9, 10, 8, 8, 4, 8, 3, 4, 0, 2, 0, 4, 6, 7, 7, 3, 9, 6, 10, 0, 10, 9, 4, 0, 9, 0, 10, 2, 4, 0, 7, 2, 0, 6, 0, 0
      | 7, 8, 5, 4, 3, 10, 9, 1, 1, 0, 0, 0, 0, 4, 7, 5, 0, 9, 3, 6, 2, 6, 8, 1, 7, 7, 5, 7, 1, 0, 0, 1, 6, 8, 1, 10, 4, 1, 0, 0, 7, 4, 2, 0, 5, 3, 5, 2, 9, 9, 4, 8, 10, 0, 7, 0, 10, 5, 0, 5 |];
suc = [ { 5, 6, 11 },
       { 4, 18, 51 },
       { 28, 57, 59 },
       { 7, 21, 33 },
       { 8, 12, 37 },
       { 9, 10, 28 },
       { 13, 15, 25 },
       { 32, 43, 44 },
       { 41, 60 },
       { 16, 17, 20 },
       { 14, 29, 31 },
       { 24, 26, 55 },
       { 45, 53, 56 },
       { 16, 50 },
       { 59 },
       { 19 },
       { 23, 38 },
       { 49 },
       { 22, 26, 27 },
       { 21, 35 },
       { 31, 40, 44 },
       { 54 },
       { 30 },
       { 46 },
       { 27, 29, 35 },
       { 52 },
       { 60 },
       { 41 },
       { 32, 39 },
       { 48 },
       { 34, 43 },
       { 46 },
       { 36, 44, 45 },
       { 36, 37, 54 },
       { 38, 42, 43 },
       { 39 },
       { 42, 45, 53 },
       { 46 },
       { 41, 42, 47 },
       { 50 },
       { 56 },
       { 60 },
       { 49 },
       { 47, 50 },
       { 48, 59 },
       { 49 },
       { 55 },
       { 57 },
       { 53 },
       { 52 },
       { 52, 54 },
       { 56 },
       { 58 },
       { 55 },
       { 57 },
       { 58 },
       { 58 },
       {  },
       {  },
       {  } ];
